TOUR_SECTION
26
172
55
150
174
99
198
18
136
56
185
38
146
86
61
148
78
144
12
23
1
6
27
100
30
15
122
183
102
9
20
124
97
160
151
63
116
165
105
137
7
96
58
119
84
140
106
68
36
186
53
127
83
57
70
139
157
25
131
104
49
33
166
121
193
60
35
153
154
182
118
8
110
195
82
64
155
5
107
161
4
75
101
113
95
43
164
3
177
45
173
76
158
103
94
19
34
21
159
22
200
41
72
115
128
181
93
32
168
114
149
138
89
44
11
73
196
48
123
169
117
85
80
171
188
16
191
69
184
133
163
167
37
98
199
10
54
194
126
187
176
170
130
175
71
77
189
81
87
180
179
145
132
74
13
197
112
162
59
129
17
125
40
28
156
52
111
50
141
147
88
29
39
108
51
134
190
178
31
120
42
142
192
2
67
90
92
24
62
14
135
79
65
46
109
91
152
47
66
143
-1
EOF